p cnf 517 291
e 287 285 0
r 0.432 289 0
e 275 291 0
r 0.673 276 292 0
e 281 283 301 300 304 303 302 306 305 0
r 0.214 277 279 294 293 297 296 295 299 298 0
e 307 308 309 310 311 312 313 314 315 316 317 318 319 320 321 322 323 324 325 326 327 328 329 330 331 332 333 334 335 336 337 338 339 340 341 342 343 344 345 346 347 348 349 350 351 352 353 354 355 356 357 358 359 360 361 362 363 364 365 366 367 368 369 370 371 372 373 374 375 376 377 378 379 380 381 382 383 384 385 386 387 388 389 390 391 392 393 394 395 396 397 398 399 400 401 402 403 404 405 406 407 408 409 410 411 412 413 414 415 416 417 418 419 420 421 422 423 424 425 426 427 428 429 430 431 432 433 434 435 436 437 438 439 440 441 442 443 444 445 446 447 448 449 450 451 452 453 454 455 456 457 458 459 460 461 462 463 464 465 466 467 468 469 470 471 472 473 474 475 476 477 478 479 480 481 482 483 484 485 486 487 488 489 490 491 492 493 494 495 496 497 498 499 500 501 502 503 504 505 506 507 508 509 510 511 512 513 514 515 516 517 0
308 339 -307 0
429 -339 0
340 -339 0
430 475 -429 0
483 -475 0
476 -475 0
505 -483 0
484 -483 0
512 -505 0
506 -505 0
306 513 -512 0
515 -513 0
514 -513 0
517 -515 0
516 -515 0
-517 -305 -285 0
-516 -305 -287 0
-514 -287 -285 0
507 -506 -306 0
508 509 -507 0
510 511 -509 0
305 -511 0
285 -511 0
305 -510 0
287 -510 0
287 -508 0
285 -508 0
495 -484 0
485 -484 0
285 496 -495 0
501 -496 0
497 -496 0
287 502 -501 0
504 -502 0
503 -502 0
305 -504 -289 0
289 -503 -305 0
498 -497 -287 0
500 -498 0
499 -498 0
289 305 -500 0
-499 -305 -289 0
486 -485 -285 0
491 -486 0
487 -486 0
287 492 -491 0
494 -492 0
493 -492 0
289 305 -494 0
-493 -305 -289 0
488 -487 -287 0
490 -488 0
489 -488 0
305 -490 -289 0
289 -489 -305 0
480 -476 0
477 -476 0
482 -480 0
481 -480 0
306 -482 -292 0
292 -481 -306 0
479 -477 0
478 -477 0
305 -479 -291 0
291 -478 -305 0
438 -430 0
431 -430 0
470 -438 0
439 -438 0
473 -470 0
471 -470 0
301 474 -473 0
-474 -304 0
-474 -303 0
472 -471 -301 0
303 304 -472 0
465 -439 0
440 -439 0
468 -465 0
466 -465 0
304 469 -468 0
-469 -302 -300 0
467 -466 -304 0
300 -467 0
302 -467 0
460 -440 0
441 -440 0
463 -460 0
461 -460 0
303 464 -463 0
-464 -287 -285 0
462 -461 -303 0
287 -462 0
285 -462 0
451 -441 0
442 -441 0
456 -451 0
452 -451 0
289 457 -456 0
459 -457 0
458 -457 0
300 -459 -302 0
302 -458 -300 0
453 -452 -289 0
455 -453 0
454 -453 0
-455 -302 -300 0
300 302 -454 0
447 -442 0
443 -442 0
302 448 -447 0
450 -448 0
449 -448 0
287 -450 -285 0
285 -449 -287 0
444 -443 -302 0
446 -444 0
445 -444 0
-446 -287 -285 0
285 287 -445 0
435 -431 0
432 -431 0
437 -435 0
436 -435 0
301 -437 -292 0
292 -436 -301 0
434 -432 0
433 -432 0
300 -434 -291 0
291 -433 -300 0
341 386 -340 0
387 394 -386 0
395 416 -394 0
423 -416 0
417 -416 0
299 424 -423 0
425 426 -424 0
427 428 -426 0
298 -428 0
285 -428 0
298 -427 0
287 -427 0
287 -425 0
285 -425 0
418 -417 -299 0
420 -418 0
419 -418 0
422 -420 0
421 -420 0
-422 -298 -285 0
-421 -298 -287 0
-419 -287 -285 0
406 -395 0
396 -395 0
285 407 -406 0
412 -407 0
408 -407 0
287 413 -412 0
415 -413 0
414 -413 0
289 298 -415 0
-414 -298 -289 0
409 -408 -287 0
411 -409 0
410 -409 0
298 -411 -289 0
289 -410 -298 0
397 -396 -285 0
402 -397 0
398 -397 0
287 403 -402 0
405 -403 0
404 -403 0
298 -405 -289 0
289 -404 -298 0
399 -398 -287 0
401 -399 0
400 -399 0
289 298 -401 0
-400 -298 -289 0
388 391 -387 0
393 -391 0
392 -391 0
292 299 -393 0
-392 -299 -292 0
390 -388 0
389 -388 0
291 298 -390 0
-389 -298 -291 0
342 349 -341 0
350 381 -349 0
384 -381 0
382 -381 0
294 385 -384 0
296 297 -385 0
383 -382 -294 0
-383 -297 0
-383 -296 0
351 376 -350 0
379 -376 0
377 -376 0
297 380 -379 0
293 -380 0
295 -380 0
378 -377 -297 0
-378 -295 -293 0
352 371 -351 0
374 -371 0
372 -371 0
296 375 -374 0
287 -375 0
285 -375 0
373 -372 -296 0
-373 -287 -285 0
353 362 -352 0
367 -362 0
363 -362 0
289 368 -367 0
370 -368 0
369 -368 0
-370 -295 -293 0
293 295 -369 0
364 -363 -289 0
366 -364 0
365 -364 0
293 -366 -295 0
295 -365 -293 0
358 -353 0
354 -353 0
295 359 -358 0
361 -359 0
360 -359 0
-361 -287 -285 0
285 287 -360 0
355 -354 -295 0
357 -355 0
356 -355 0
287 -357 -285 0
285 -356 -287 0
343 346 -342 0
348 -346 0
347 -346 0
292 294 -348 0
-347 -294 -292 0
345 -343 0
344 -343 0
291 293 -345 0
-344 -293 -291 0
324 -308 0
309 -308 0
325 332 -324 0
336 -332 0
333 -332 0
338 -336 0
337 -336 0
283 -338 -276 0
276 -337 -283 0
335 -333 0
334 -333 0
283 -335 -275 0
275 -334 -283 0
329 -325 0
326 -325 0
331 -329 0
330 -329 0
281 -331 -276 0
276 -330 -281 0
328 -326 0
327 -326 0
281 -328 -275 0
275 -327 -281 0
310 317 -309 0
318 321 -317 0
323 -321 0
322 -321 0
276 279 -323 0
-322 -279 -276 0
320 -318 0
319 -318 0
275 279 -320 0
-319 -279 -275 0
311 314 -310 0
316 -314 0
315 -314 0
276 277 -316 0
-315 -277 -276 0
313 -311 0
312 -311 0
275 277 -313 0
-312 -277 -275 0
307 0
